NAME          
ROWS
 N  OBJ
 L  c1
 L  c2
 L  c3
COLUMNS
    MARKER    'MARKER'                 'INTORG'
    x[1]      c1        841
    x[1]      c2        198
    x[1]      c3        331
    x[1]      OBJ       -969
    x[2]      c1        677
    x[2]      c2        473
    x[2]      c3        655
    x[2]      OBJ       -610
    x[3]      c1        117
    x[3]      c2        460
    x[3]      c3        189
    x[3]      OBJ       -474
    x[4]      c1        723
    x[4]      c2        208
    x[4]      c3        125
    x[4]      OBJ       -679
    x[5]      c1        423
    x[5]      c2        138
    x[5]      c3        182
    x[5]      OBJ       -963
    x[6]      c1        10
    x[6]      c2        487
    x[6]      c3        990
    x[6]      OBJ       -778
    x[7]      c1        441
    x[7]      c2        89
    x[7]      c3        95
    x[7]      OBJ       -109
    x[8]      c1        748
    x[8]      c2        121
    x[8]      c3        700
    x[8]      OBJ       -90
    x[9]      c1        376
    x[9]      c2        946
    x[9]      c3        174
    x[9]      OBJ       -419
    x[10]     c1        687
    x[10]     c2        803
    x[10]     c3        607
    x[10]     OBJ       -699
    x[11]     c1        715
    x[11]     c2        971
    x[11]     c3        523
    x[11]     OBJ       -501
    x[12]     c1        637
    x[12]     c2        785
    x[12]     c3        871
    x[12]     OBJ       -547
    x[13]     c1        110
    x[13]     c2        963
    x[13]     c3        11
    x[13]     OBJ       -658
    x[14]     c1        579
    x[14]     c2        381
    x[14]     c3        525
    x[14]     OBJ       -163
    x[15]     c1        436
    x[15]     c2        190
    x[15]     c3        595
    x[15]     OBJ       -636
RHS
    rhs       c1        3760
    rhs       c2        3606
    rhs       c3        3286
RANGES
BOUNDS
 BV bounds    x[1]
 BV bounds    x[2]
 BV bounds    x[3]
 BV bounds    x[4]
 BV bounds    x[5]
 BV bounds    x[6]
 BV bounds    x[7]
 BV bounds    x[8]
 BV bounds    x[9]
 BV bounds    x[10]
 BV bounds    x[11]
 BV bounds    x[12]
 BV bounds    x[13]
 BV bounds    x[14]
 BV bounds    x[15]
ENDATA
